n 24
m 2
tmax 10
0.0	0.0	0
0.0	1.0	20
0.0	2.0	20
0.0	3.0	30
0.0	4.0	15
0.0	5.0	15
1.0	0.0	10
1.0	1.0	10
1.0	2.0	20
1.0	3.0	20
1.0	4.0	20
1.0	5.0	15
2.0	0.0	20
2.0	1.0	10
2.0	2.0	10
2.0	3.0	25
2.0	4.0	40
2.0	5.0	40
3.0	0.0	15
3.0	1.0	30
3.0	2.0	30
3.0	3.0	50
3.0	4.0	30
3.0	5.0	0
